70
1 0 2
2 0 2
2 1 2
3 0 2
3 1 1
3 2 1
4 0 2
4 1 1
4 2 2
4 3 2
5 0 2
5 1 1
5 2 2
5 3 2
5 4 2
6 0 2
6 1 1
6 2 2
6 3 1
6 4 2
6 5 1
7 0 2
7 1 2
7 2 1
7 3 1
7 4 2
7 5 1
7 6 2
8 0 2
8 1 2
8 2 2
8 3 1
8 4 1
8 5 1
8 6 1
8 7 2
9 0 1
9 1 1
9 2 2
9 3 2
9 4 2
9 5 2
9 6 1
9 7 2
9 8 2
10 0 2
10 1 1
10 2 2
10 3 1
10 4 1
10 5 2
10 6 2
10 7 1
10 8 1
10 9 2
11 0 1
11 1 1
11 2 1
11 3 1
11 4 2
11 5 1
11 6 1
11 7 1
11 8 1
11 9 2
11 10 1
12 0 1
12 1 2
12 2 1
12 3 1
12 4 2
12 5 1
12 6 2
12 7 2
12 8 2
12 9 2
12 10 2
12 11 2
13 0 1
13 1 2
13 2 1
13 3 2
13 4 2
13 5 2
13 6 1
13 7 1
13 8 2
13 9 1
13 10 2
13 11 2
13 12 2
14 0 2
14 1 2
14 2 2
14 3 2
14 4 1
14 5 2
14 6 2
14 7 1
14 8 2
14 9 1
14 10 1
14 11 1
14 12 1
14 13 1
15 0 1
15 1 1
15 2 2
15 3 1
15 4 2
15 5 2
15 6 1
15 7 1
15 8 2
15 9 1
15 10 2
15 11 2
15 12 2
15 13 2
15 14 2
16 0 2
16 1 1
16 2 1
16 3 1
16 4 1
16 5 2
16 6 2
16 7 1
16 8 1
16 9 1
16 10 2
16 11 2
16 12 1
16 13 1
16 14 2
16 15 1
17 0 1
17 1 1
17 2 1
17 3 2
17 4 2
17 5 2
17 6 2
17 7 1
17 8 2
17 9 2
17 10 2
17 11 2
17 12 1
17 13 2
17 14 2
17 15 1
17 16 1
18 0 1
18 1 2
18 2 1
18 3 1
18 4 2
18 5 2
18 6 1
18 7 1
18 8 1
18 9 1
18 10 1
18 11 2
18 12 1
18 13 1
18 14 1
18 15 1
18 16 1
18 17 1
19 0 1
19 1 2
19 2 1
19 3 1
19 4 1
19 5 1
19 6 2
19 7 2
19 8 1
19 9 2
19 10 1
19 11 1
19 12 2
19 13 1
19 14 2
19 15 1
19 16 1
19 17 2
19 18 1
20 0 2
20 1 2
20 2 2
20 3 1
20 4 1
20 5 1
20 6 2
20 7 1
20 8 2
20 9 1
20 10 2
20 11 1
20 12 1
20 13 2
20 14 1
20 15 2
20 16 2
20 17 2
20 18 1
20 19 2
21 0 1
21 1 1
21 2 1
21 3 1
21 4 2
21 5 1
21 6 2
21 7 2
21 8 1
21 9 2
21 10 1
21 11 1
21 12 1
21 13 2
21 14 2
21 15 2
21 16 1
21 17 1
21 18 2
21 19 2
21 20 2
22 0 2
22 1 1
22 2 1
22 3 1
22 4 2
22 5 2
22 6 1
22 7 1
22 8 2
22 9 1
22 10 1
22 11 2
22 12 1
22 13 1
22 14 2
22 15 1
22 16 1
22 17 1
22 18 1
22 19 1
22 20 2
22 21 1
23 0 2
23 1 1
23 2 2
23 3 2
23 4 1
23 5 2
23 6 1
23 7 1
23 8 1
23 9 1
23 10 1
23 11 2
23 12 1
23 13 2
23 14 1
23 15 2
23 16 2
23 17 2
23 18 2
23 19 1
23 20 2
23 21 1
23 22 2
24 0 2
24 1 1
24 2 2
24 3 2
24 4 2
24 5 1
24 6 1
24 7 2
24 8 2
24 9 2
24 10 2
24 11 2
24 12 1
24 13 2
24 14 1
24 15 1
24 16 2
24 17 2
24 18 1
24 19 1
24 20 2
24 21 2
24 22 1
24 23 2
25 0 2
25 1 1
25 2 1
25 3 1
25 4 2
25 5 1
25 6 1
25 7 1
25 8 1
25 9 2
25 10 2
25 11 2
25 12 2
25 13 1
25 14 2
25 15 2
25 16 2
25 17 1
25 18 1
25 19 1
25 20 1
25 21 2
25 22 2
25 23 1
25 24 1
26 0 2
26 1 1
26 2 2
26 3 1
26 4 2
26 5 1
26 6 1
26 7 2
26 8 1
26 9 1
26 10 1
26 11 1
26 12 2
26 13 1
26 14 2
26 15 2
26 16 2
26 17 1
26 18 1
26 19 1
26 20 2
26 21 2
26 22 2
26 23 1
26 24 1
26 25 1
27 0 1
27 1 1
27 2 1
27 3 2
27 4 2
27 5 2
27 6 2
27 7 2
27 8 1
27 9 1
27 10 2
27 11 2
27 12 2
27 13 2
27 14 2
27 15 1
27 16 2
27 17 2
27 18 1
27 19 2
27 20 1
27 21 2
27 22 1
27 23 2
27 24 1
27 25 2
27 26 1
28 0 2
28 1 1
28 2 2
28 3 2
28 4 1
28 5 1
28 6 1
28 7 1
28 8 1
28 9 2
28 10 1
28 11 2
28 12 1
28 13 2
28 14 1
28 15 2
28 16 2
28 17 2
28 18 1
28 19 2
28 20 1
28 21 1
28 22 2
28 23 1
28 24 1
28 25 1
28 26 2
28 27 1
29 0 1
29 1 1
29 2 2
29 3 1
29 4 1
29 5 2
29 6 2
29 7 1
29 8 1
29 9 1
29 10 2
29 11 2
29 12 1
29 13 2
29 14 2
29 15 1
29 16 2
29 17 2
29 18 1
29 19 1
29 20 1
29 21 2
29 22 2
29 23 1
29 24 1
29 25 1
29 26 1
29 27 2
29 28 1
30 0 2
30 1 2
30 2 2
30 3 2
30 4 1
30 5 2
30 6 2
30 7 1
30 8 1
30 9 2
30 10 2
30 11 2
30 12 2
30 13 2
30 14 2
30 15 1
30 16 2
30 17 1
30 18 1
30 19 2
30 20 2
30 21 1
30 22 2
30 23 1
30 24 1
30 25 2
30 26 2
30 27 1
30 28 1
30 29 1
31 0 2
31 1 2
31 2 1
31 3 2
31 4 1
31 5 1
31 6 2
31 7 2
31 8 1
31 9 2
31 10 1
31 11 2
31 12 2
31 13 1
31 14 2
31 15 2
31 16 1
31 17 2
31 18 2
31 19 2
31 20 1
31 21 1
31 22 2
31 23 1
31 24 1
31 25 2
31 26 1
31 27 2
31 28 2
31 29 2
31 30 1
32 0 2
32 1 1
32 2 2
32 3 2
32 4 1
32 5 2
32 6 2
32 7 1
32 8 2
32 9 2
32 10 2
32 11 2
32 12 2
32 13 1
32 14 2
32 15 2
32 16 2
32 17 2
32 18 2
32 19 1
32 20 1
32 21 1
32 22 1
32 23 1
32 24 1
32 25 2
32 26 1
32 27 2
32 28 2
32 29 2
32 30 2
32 31 1
33 0 2
33 1 2
33 2 1
33 3 1
33 4 1
33 5 2
33 6 1
33 7 1
33 8 1
33 9 2
33 10 2
33 11 2
33 12 2
33 13 2
33 14 1
33 15 2
33 16 1
33 17 2
33 18 2
33 19 1
33 20 2
33 21 1
33 22 1
33 23 1
33 24 2
33 25 2
33 26 1
33 27 1
33 28 1
33 29 2
33 30 2
33 31 2
33 32 2
34 0 2
34 1 1
34 2 1
34 3 2
34 4 1
34 5 1
34 6 1
34 7 1
34 8 1
34 9 1
34 10 1
34 11 1
34 12 1
34 13 2
34 14 1
34 15 2
34 16 1
34 17 2
34 18 2
34 19 1
34 20 1
34 21 1
34 22 1
34 23 2
34 24 2
34 25 2
34 26 1
34 27 2
34 28 2
34 29 1
34 30 2
34 31 2
34 32 2
34 33 2
35 0 1
35 1 2
35 2 1
35 3 2
35 4 1
35 5 2
35 6 1
35 7 2
35 8 1
35 9 2
35 10 1
35 11 2
35 12 2
35 13 2
35 14 2
35 15 1
35 16 1
35 17 2
35 18 2
35 19 2
35 20 2
35 21 2
35 22 2
35 23 1
35 24 2
35 25 2
35 26 1
35 27 1
35 28 1
35 29 1
35 30 2
35 31 1
35 32 2
35 33 1
35 34 1
36 0 2
36 1 2
36 2 2
36 3 1
36 4 1
36 5 2
36 6 2
36 7 2
36 8 2
36 9 2
36 10 1
36 11 2
36 12 1
36 13 1
36 14 1
36 15 2
36 16 2
36 17 1
36 18 2
36 19 2
36 20 2
36 21 1
36 22 1
36 23 2
36 24 1
36 25 1
36 26 2
36 27 1
36 28 2
36 29 2
36 30 1
36 31 2
36 32 1
36 33 1
36 34 1
36 35 2
37 0 2
37 1 1
37 2 2
37 3 1
37 4 1
37 5 1
37 6 2
37 7 2
37 8 2
37 9 1
37 10 2
37 11 2
37 12 1
37 13 1
37 14 1
37 15 1
37 16 1
37 17 1
37 18 2
37 19 1
37 20 2
37 21 2
37 22 2
37 23 1
37 24 2
37 25 2
37 26 2
37 27 1
37 28 2
37 29 1
37 30 1
37 31 1
37 32 2
37 33 2
37 34 2
37 35 2
37 36 2
38 0 2
38 1 1
38 2 1
38 3 2
38 4 1
38 5 2
38 6 2
38 7 2
38 8 2
38 9 1
38 10 1
38 11 1
38 12 1
38 13 1
38 14 2
38 15 2
38 16 2
38 17 1
38 18 2
38 19 1
38 20 1
38 21 1
38 22 1
38 23 2
38 24 2
38 25 2
38 26 1
38 27 1
38 28 2
38 29 2
38 30 2
38 31 2
38 32 2
38 33 2
38 34 2
38 35 1
38 36 1
38 37 2
39 0 1
39 1 2
39 2 2
39 3 2
39 4 2
39 5 2
39 6 1
39 7 1
39 8 2
39 9 2
39 10 1
39 11 1
39 12 2
39 13 1
39 14 1
39 15 1
39 16 2
39 17 2
39 18 2
39 19 1
39 20 1
39 21 1
39 22 2
39 23 2
39 24 2
39 25 2
39 26 2
39 27 1
39 28 2
39 29 1
39 30 1
39 31 2
39 32 1
39 33 1
39 34 1
39 35 2
39 36 1
39 37 2
39 38 2
40 0 2
40 1 2
40 2 1
40 3 1
40 4 1
40 5 1
40 6 2
40 7 2
40 8 1
40 9 2
40 10 2
40 11 1
40 12 1
40 13 2
40 14 2
40 15 2
40 16 1
40 17 2
40 18 1
40 19 2
40 20 2
40 21 2
40 22 2
40 23 1
40 24 1
40 25 2
40 26 2
40 27 2
40 28 2
40 29 1
40 30 1
40 31 1
40 32 1
40 33 2
40 34 2
40 35 2
40 36 1
40 37 1
40 38 2
40 39 1
41 0 2
41 1 1
41 2 2
41 3 2
41 4 1
41 5 1
41 6 2
41 7 1
41 8 1
41 9 1
41 10 2
41 11 2
41 12 2
41 13 2
41 14 2
41 15 1
41 16 2
41 17 1
41 18 2
41 19 2
41 20 1
41 21 1
41 22 2
41 23 2
41 24 2
41 25 1
41 26 2
41 27 2
41 28 1
41 29 1
41 30 2
41 31 1
41 32 1
41 33 1
41 34 1
41 35 2
41 36 2
41 37 1
41 38 1
41 39 2
41 40 2
42 0 2
42 1 1
42 2 1
42 3 2
42 4 1
42 5 2
42 6 1
42 7 1
42 8 1
42 9 1
42 10 2
42 11 2
42 12 1
42 13 2
42 14 1
42 15 2
42 16 2
42 17 1
42 18 2
42 19 1
42 20 1
42 21 1
42 22 1
42 23 2
42 24 2
42 25 2
42 26 2
42 27 1
42 28 2
42 29 1
42 30 1
42 31 1
42 32 2
42 33 2
42 34 2
42 35 2
42 36 2
42 37 2
42 38 1
42 39 2
42 40 2
42 41 2
43 0 1
43 1 1
43 2 2
43 3 2
43 4 2
43 5 2
43 6 1
43 7 1
43 8 2
43 9 2
43 10 1
43 11 1
43 12 1
43 13 2
43 14 2
43 15 1
43 16 2
43 17 1
43 18 1
43 19 2
43 20 1
43 21 1
43 22 1
43 23 2
43 24 1
43 25 2
43 26 2
43 27 1
43 28 1
43 29 1
43 30 1
43 31 1
43 32 2
43 33 2
43 34 1
43 35 1
43 36 2
43 37 2
43 38 2
43 39 2
43 40 2
43 41 1
43 42 2
44 0 2
44 1 1
44 2 1
44 3 2
44 4 1
44 5 1
44 6 2
44 7 2
44 8 1
44 9 2
44 10 2
44 11 1
44 12 1
44 13 1
44 14 2
44 15 2
44 16 1
44 17 2
44 18 1
44 19 2
44 20 1
44 21 1
44 22 2
44 23 1
44 24 1
44 25 2
44 26 2
44 27 1
44 28 1
44 29 1
44 30 2
44 31 1
44 32 1
44 33 2
44 34 1
44 35 2
44 36 2
44 37 1
44 38 2
44 39 2
44 40 1
44 41 1
44 42 1
44 43 1
45 0 1
45 1 2
45 2 2
45 3 1
45 4 1
45 5 1
45 6 1
45 7 2
45 8 1
45 9 1
45 10 2
45 11 2
45 12 1
45 13 1
45 14 1
45 15 1
45 16 2
45 17 1
45 18 1
45 19 1
45 20 1
45 21 1
45 22 2
45 23 2
45 24 2
45 25 1
45 26 2
45 27 2
45 28 1
45 29 1
45 30 1
45 31 1
45 32 1
45 33 2
45 34 2
45 35 1
45 36 2
45 37 2
45 38 1
45 39 2
45 40 2
45 41 1
45 42 1
45 43 1
45 44 2
46 0 2
46 1 1
46 2 1
46 3 2
46 4 1
46 5 2
46 6 1
46 7 2
46 8 2
46 9 2
46 10 2
46 11 1
46 12 2
46 13 1
46 14 2
46 15 2
46 16 2
46 17 1
46 18 2
46 19 2
46 20 1
46 21 2
46 22 1
46 23 1
46 24 2
46 25 1
46 26 1
46 27 2
46 28 2
46 29 2
46 30 1
46 31 1
46 32 2
46 33 1
46 34 1
46 35 2
46 36 2
46 37 1
46 38 1
46 39 1
46 40 2
46 41 2
46 42 1
46 43 2
46 44 2
46 45 1
47 0 1
47 1 2
47 2 2
47 3 2
47 4 2
47 5 2
47 6 2
47 7 2
47 8 1
47 9 2
47 10 1
47 11 2
47 12 2
47 13 2
47 14 2
47 15 2
47 16 1
47 17 2
47 18 2
47 19 2
47 20 1
47 21 1
47 22 1
47 23 2
47 24 2
47 25 1
47 26 1
47 27 1
47 28 1
47 29 2
47 30 1
47 31 2
47 32 1
47 33 2
47 34 1
47 35 2
47 36 1
47 37 2
47 38 1
47 39 1
47 40 2
47 41 1
47 42 1
47 43 1
47 44 2
47 45 1
47 46 1
48 0 1
48 1 2
48 2 1
48 3 1
48 4 1
48 5 2
48 6 1
48 7 2
48 8 2
48 9 1
48 10 2
48 11 2
48 12 2
48 13 2
48 14 2
48 15 1
48 16 1
48 17 1
48 18 1
48 19 2
48 20 2
48 21 2
48 22 1
48 23 2
48 24 2
48 25 2
48 26 1
48 27 1
48 28 1
48 29 1
48 30 1
48 31 2
48 32 1
48 33 2
48 34 2
48 35 2
48 36 1
48 37 1
48 38 2
48 39 1
48 40 2
48 41 1
48 42 2
48 43 2
48 44 2
48 45 2
48 46 2
48 47 1
49 0 2
49 1 1
49 2 2
49 3 2
49 4 2
49 5 2
49 6 2
49 7 2
49 8 2
49 9 1
49 10 2
49 11 1
49 12 1
49 13 2
49 14 2
49 15 2
49 16 2
49 17 1
49 18 1
49 19 2
49 20 2
49 21 1
49 22 1
49 23 1
49 24 1
49 25 1
49 26 2
49 27 1
49 28 2
49 29 2
49 30 2
49 31 2
49 32 2
49 33 2
49 34 1
49 35 2
49 36 1
49 37 1
49 38 1
49 39 1
49 40 2
49 41 2
49 42 2
49 43 2
49 44 2
49 45 2
49 46 1
49 47 1
49 48 1
50 0 1
50 1 1
50 2 1
50 3 2
50 4 1
50 5 1
50 6 1
50 7 1
50 8 1
50 9 2
50 10 1
50 11 1
50 12 1
50 13 2
50 14 2
50 15 2
50 16 2
50 17 1
50 18 2
50 19 2
50 20 1
50 21 1
50 22 2
50 23 2
50 24 2
50 25 1
50 26 2
50 27 2
50 28 1
50 29 2
50 30 2
50 31 1
50 32 1
50 33 2
50 34 1
50 35 1
50 36 2
50 37 1
50 38 2
50 39 2
50 40 2
50 41 1
50 42 1
50 43 2
50 44 1
50 45 2
50 46 1
50 47 1
50 48 1
50 49 2
51 0 2
51 1 2
51 2 2
51 3 1
51 4 1
51 5 1
51 6 2
51 7 1
51 8 1
51 9 1
51 10 2
51 11 1
51 12 1
51 13 1
51 14 2
51 15 2
51 16 2
51 17 2
51 18 2
51 19 2
51 20 1
51 21 2
51 22 1
51 23 1
51 24 2
51 25 2
51 26 1
51 27 2
51 28 1
51 29 1
51 30 1
51 31 1
51 32 1
51 33 2
51 34 1
51 35 1
51 36 1
51 37 2
51 38 1
51 39 2
51 40 1
51 41 2
51 42 2
51 43 2
51 44 2
51 45 1
51 46 2
51 47 1
51 48 2
51 49 2
51 50 1
52 0 1
52 1 1
52 2 2
52 3 1
52 4 2
52 5 1
52 6 2
52 7 1
52 8 1
52 9 2
52 10 2
52 11 2
52 12 2
52 13 2
52 14 2
52 15 2
52 16 2
52 17 2
52 18 2
52 19 2
52 20 1
52 21 1
52 22 2
52 23 1
52 24 1
52 25 2
52 26 2
52 27 1
52 28 1
52 29 1
52 30 1
52 31 2
52 32 2
52 33 1
52 34 2
52 35 1
52 36 1
52 37 2
52 38 1
52 39 2
52 40 2
52 41 2
52 42 2
52 43 2
52 44 2
52 45 1
52 46 1
52 47 2
52 48 1
52 49 1
52 50 1
52 51 1
53 0 1
53 1 2
53 2 2
53 3 1
53 4 2
53 5 1
53 6 1
53 7 2
53 8 1
53 9 2
53 10 2
53 11 2
53 12 1
53 13 2
53 14 2
53 15 2
53 16 1
53 17 2
53 18 2
53 19 1
53 20 1
53 21 2
53 22 1
53 23 1
53 24 2
53 25 2
53 26 1
53 27 1
53 28 2
53 29 1
53 30 1
53 31 2
53 32 1
53 33 2
53 34 2
53 35 2
53 36 1
53 37 1
53 38 2
53 39 2
53 40 1
53 41 1
53 42 1
53 43 1
53 44 1
53 45 1
53 46 1
53 47 2
53 48 2
53 49 1
53 50 1
53 51 1
53 52 1
54 0 2
54 1 1
54 2 1
54 3 2
54 4 2
54 5 1
54 6 1
54 7 2
54 8 2
54 9 2
54 10 2
54 11 1
54 12 1
54 13 1
54 14 1
54 15 1
54 16 1
54 17 1
54 18 2
54 19 2
54 20 1
54 21 2
54 22 1
54 23 2
54 24 2
54 25 1
54 26 1
54 27 2
54 28 2
54 29 2
54 30 2
54 31 2
54 32 2
54 33 1
54 34 2
54 35 1
54 36 2
54 37 2
54 38 2
54 39 1
54 40 1
54 41 2
54 42 2
54 43 1
54 44 1
54 45 2
54 46 2
54 47 1
54 48 2
54 49 1
54 50 1
54 51 1
54 52 2
54 53 1
55 0 1
55 1 2
55 2 2
55 3 1
55 4 2
55 5 2
55 6 2
55 7 1
55 8 1
55 9 2
55 10 1
55 11 2
55 12 1
55 13 1
55 14 2
55 15 2
55 16 2
55 17 2
55 18 1
55 19 2
55 20 2
55 21 1
55 22 1
55 23 1
55 24 1
55 25 1
55 26 1
55 27 2
55 28 1
55 29 1
55 30 2
55 31 2
55 32 2
55 33 2
55 34 1
55 35 1
55 36 1
55 37 1
55 38 1
55 39 1
55 40 2
55 41 2
55 42 1
55 43 2
55 44 2
55 45 1
55 46 2
55 47 1
55 48 2
55 49 1
55 50 1
55 51 1
55 52 1
55 53 1
55 54 1
56 0 2
56 1 2
56 2 2
56 3 2
56 4 2
56 5 1
56 6 1
56 7 1
56 8 1
56 9 2
56 10 1
56 11 1
56 12 2
56 13 2
56 14 2
56 15 2
56 16 1
56 17 1
56 18 2
56 19 2
56 20 1
56 21 2
56 22 2
56 23 2
56 24 1
56 25 1
56 26 2
56 27 1
56 28 2
56 29 2
56 30 2
56 31 2
56 32 1
56 33 1
56 34 1
56 35 1
56 36 1
56 37 2
56 38 2
56 39 1
56 40 1
56 41 1
56 42 1
56 43 2
56 44 2
56 45 1
56 46 2
56 47 1
56 48 1
56 49 1
56 50 2
56 51 2
56 52 2
56 53 2
56 54 2
56 55 2
57 0 1
57 1 1
57 2 2
57 3 1
57 4 1
57 5 1
57 6 2
57 7 1
57 8 1
57 9 2
57 10 1
57 11 1
57 12 1
57 13 2
57 14 2
57 15 2
57 16 2
57 17 1
57 18 2
57 19 2
57 20 1
57 21 2
57 22 2
57 23 2
57 24 1
57 25 2
57 26 1
57 27 2
57 28 1
57 29 1
57 30 1
57 31 1
57 32 2
57 33 1
57 34 1
57 35 1
57 36 1
57 37 1
57 38 1
57 39 1
57 40 2
57 41 1
57 42 1
57 43 1
57 44 2
57 45 2
57 46 1
57 47 1
57 48 2
57 49 2
57 50 2
57 51 1
57 52 2
57 53 1
57 54 1
57 55 2
57 56 1
58 0 1
58 1 1
58 2 2
58 3 1
58 4 1
58 5 2
58 6 2
58 7 1
58 8 2
58 9 1
58 10 2
58 11 2
58 12 1
58 13 1
58 14 1
58 15 1
58 16 1
58 17 2
58 18 2
58 19 1
58 20 1
58 21 2
58 22 1
58 23 2
58 24 2
58 25 2
58 26 2
58 27 2
58 28 2
58 29 1
58 30 1
58 31 1
58 32 1
58 33 1
58 34 2
58 35 2
58 36 1
58 37 2
58 38 1
58 39 1
58 40 2
58 41 2
58 42 2
58 43 2
58 44 1
58 45 1
58 46 1
58 47 2
58 48 1
58 49 2
58 50 1
58 51 2
58 52 2
58 53 1
58 54 1
58 55 1
58 56 2
58 57 1
59 0 1
59 1 2
59 2 1
59 3 2
59 4 2
59 5 2
59 6 1
59 7 1
59 8 2
59 9 1
59 10 2
59 11 1
59 12 2
59 13 2
59 14 2
59 15 2
59 16 2
59 17 2
59 18 1
59 19 2
59 20 2
59 21 2
59 22 1
59 23 1
59 24 2
59 25 1
59 26 2
59 27 2
59 28 2
59 29 1
59 30 2
59 31 1
59 32 2
59 33 1
59 34 1
59 35 1
59 36 1
59 37 2
59 38 2
59 39 1
59 40 2
59 41 1
59 42 1
59 43 1
59 44 2
59 45 1
59 46 2
59 47 1
59 48 2
59 49 1
59 50 1
59 51 1
59 52 1
59 53 1
59 54 2
59 55 1
59 56 1
59 57 2
59 58 2
60 0 1
60 1 1
60 2 1
60 3 1
60 4 1
60 5 1
60 6 1
60 7 1
60 8 1
60 9 1
60 10 1
60 11 2
60 12 2
60 13 1
60 14 1
60 15 1
60 16 2
60 17 1
60 18 2
60 19 1
60 20 2
60 21 1
60 22 2
60 23 2
60 24 1
60 25 1
60 26 2
60 27 1
60 28 2
60 29 2
60 30 2
60 31 1
60 32 2
60 33 2
60 34 1
60 35 1
60 36 1
60 37 2
60 38 2
60 39 1
60 40 1
60 41 2
60 42 1
60 43 2
60 44 1
60 45 1
60 46 1
60 47 1
60 48 2
60 49 1
60 50 2
60 51 1
60 52 2
60 53 2
60 54 1
60 55 1
60 56 1
60 57 2
60 58 2
60 59 2
61 0 2
61 1 1
61 2 2
61 3 1
61 4 2
61 5 1
61 6 2
61 7 1
61 8 2
61 9 2
61 10 1
61 11 2
61 12 1
61 13 2
61 14 1
61 15 2
61 16 2
61 17 1
61 18 2
61 19 2
61 20 1
61 21 2
61 22 1
61 23 1
61 24 2
61 25 2
61 26 2
61 27 2
61 28 2
61 29 1
61 30 1
61 31 1
61 32 1
61 33 1
61 34 2
61 35 1
61 36 1
61 37 2
61 38 2
61 39 2
61 40 1
61 41 1
61 42 2
61 43 2
61 44 2
61 45 1
61 46 1
61 47 2
61 48 2
61 49 1
61 50 1
61 51 2
61 52 2
61 53 2
61 54 2
61 55 2
61 56 1
61 57 1
61 58 1
61 59 1
61 60 2
62 0 2
62 1 2
62 2 2
62 3 1
62 4 2
62 5 2
62 6 1
62 7 2
62 8 1
62 9 2
62 10 2
62 11 2
62 12 1
62 13 1
62 14 1
62 15 1
62 16 2
62 17 1
62 18 2
62 19 2
62 20 2
62 21 2
62 22 1
62 23 1
62 24 2
62 25 2
62 26 2
62 27 2
62 28 2
62 29 2
62 30 2
62 31 1
62 32 1
62 33 1
62 34 1
62 35 2
62 36 1
62 37 1
62 38 1
62 39 1
62 40 2
62 41 1
62 42 1
62 43 2
62 44 2
62 45 1
62 46 2
62 47 1
62 48 1
62 49 2
62 50 2
62 51 1
62 52 2
62 53 1
62 54 2
62 55 1
62 56 2
62 57 1
62 58 1
62 59 1
62 60 2
62 61 2
63 0 1
63 1 1
63 2 2
63 3 2
63 4 1
63 5 2
63 6 2
63 7 2
63 8 2
63 9 2
63 10 1
63 11 1
63 12 2
63 13 2
63 14 2
63 15 1
63 16 2
63 17 1
63 18 2
63 19 1
63 20 1
63 21 1
63 22 2
63 23 1
63 24 1
63 25 1
63 26 1
63 27 1
63 28 2
63 29 1
63 30 1
63 31 2
63 32 2
63 33 2
63 34 2
63 35 1
63 36 1
63 37 1
63 38 2
63 39 1
63 40 2
63 41 2
63 42 1
63 43 1
63 44 1
63 45 2
63 46 2
63 47 1
63 48 2
63 49 2
63 50 2
63 51 2
63 52 1
63 53 2
63 54 2
63 55 2
63 56 1
63 57 2
63 58 2
63 59 1
63 60 1
63 61 1
63 62 1
64 0 2
64 1 1
64 2 1
64 3 2
64 4 1
64 5 2
64 6 2
64 7 1
64 8 2
64 9 2
64 10 1
64 11 1
64 12 1
64 13 2
64 14 2
64 15 2
64 16 2
64 17 2
64 18 1
64 19 1
64 20 1
64 21 2
64 22 2
64 23 2
64 24 1
64 25 2
64 26 1
64 27 1
64 28 1
64 29 1
64 30 2
64 31 2
64 32 1
64 33 1
64 34 2
64 35 2
64 36 2
64 37 2
64 38 2
64 39 2
64 40 1
64 41 1
64 42 2
64 43 1
64 44 1
64 45 2
64 46 1
64 47 1
64 48 1
64 49 2
64 50 1
64 51 1
64 52 2
64 53 2
64 54 2
64 55 2
64 56 2
64 57 1
64 58 1
64 59 2
64 60 2
64 61 2
64 62 1
64 63 2
65 0 2
65 1 2
65 2 1
65 3 1
65 4 2
65 5 1
65 6 2
65 7 2
65 8 1
65 9 1
65 10 2
65 11 1
65 12 2
65 13 2
65 14 1
65 15 1
65 16 1
65 17 2
65 18 2
65 19 1
65 20 2
65 21 1
65 22 2
65 23 2
65 24 2
65 25 1
65 26 2
65 27 2
65 28 2
65 29 2
65 30 2
65 31 1
65 32 1
65 33 2
65 34 1
65 35 1
65 36 2
65 37 1
65 38 1
65 39 2
65 40 2
65 41 2
65 42 1
65 43 1
65 44 1
65 45 2
65 46 1
65 47 2
65 48 1
65 49 1
65 50 2
65 51 2
65 52 2
65 53 2
65 54 1
65 55 2
65 56 2
65 57 2
65 58 1
65 59 1
65 60 1
65 61 2
65 62 1
65 63 1
65 64 1
66 0 2
66 1 2
66 2 2
66 3 1
66 4 1
66 5 1
66 6 1
66 7 2
66 8 2
66 9 1
66 10 2
66 11 1
66 12 2
66 13 2
66 14 2
66 15 2
66 16 2
66 17 1
66 18 1
66 19 1
66 20 2
66 21 2
66 22 1
66 23 1
66 24 1
66 25 2
66 26 2
66 27 1
66 28 2
66 29 1
66 30 1
66 31 2
66 32 1
66 33 1
66 34 2
66 35 1
66 36 2
66 37 2
66 38 2
66 39 1
66 40 2
66 41 2
66 42 1
66 43 1
66 44 1
66 45 1
66 46 2
66 47 1
66 48 2
66 49 2
66 50 2
66 51 1
66 52 2
66 53 2
66 54 2
66 55 1
66 56 1
66 57 2
66 58 2
66 59 2
66 60 2
66 61 2
66 62 1
66 63 1
66 64 2
66 65 1
67 0 1
67 1 2
67 2 1
67 3 1
67 4 2
67 5 1
67 6 1
67 7 1
67 8 1
67 9 2
67 10 2
67 11 1
67 12 2
67 13 2
67 14 2
67 15 2
67 16 1
67 17 2
67 18 2
67 19 1
67 20 2
67 21 1
67 22 1
67 23 1
67 24 2
67 25 1
67 26 2
67 27 1
67 28 1
67 29 2
67 30 2
67 31 2
67 32 2
67 33 1
67 34 1
67 35 2
67 36 2
67 37 1
67 38 2
67 39 2
67 40 1
67 41 2
67 42 1
67 43 1
67 44 2
67 45 1
67 46 1
67 47 1
67 48 2
67 49 2
67 50 1
67 51 1
67 52 2
67 53 1
67 54 2
67 55 1
67 56 2
67 57 1
67 58 1
67 59 1
67 60 2
67 61 1
67 62 2
67 63 1
67 64 1
67 65 1
67 66 1
68 0 1
68 1 1
68 2 2
68 3 1
68 4 1
68 5 2
68 6 2
68 7 1
68 8 2
68 9 1
68 10 2
68 11 1
68 12 2
68 13 2
68 14 2
68 15 1
68 16 1
68 17 1
68 18 2
68 19 2
68 20 1
68 21 2
68 22 2
68 23 2
68 24 1
68 25 1
68 26 1
68 27 2
68 28 1
68 29 1
68 30 1
68 31 2
68 32 2
68 33 1
68 34 1
68 35 1
68 36 1
68 37 1
68 38 2
68 39 1
68 40 2
68 41 2
68 42 2
68 43 1
68 44 2
68 45 1
68 46 2
68 47 1
68 48 1
68 49 2
68 50 2
68 51 2
68 52 1
68 53 1
68 54 1
68 55 2
68 56 2
68 57 1
68 58 2
68 59 2
68 60 2
68 61 2
68 62 1
68 63 1
68 64 2
68 65 2
68 66 2
68 67 1
69 0 2
69 1 2
69 2 1
69 3 1
69 4 1
69 5 1
69 6 1
69 7 1
69 8 1
69 9 1
69 10 2
69 11 1
69 12 1
69 13 1
69 14 1
69 15 2
69 16 1
69 17 2
69 18 2
69 19 2
69 20 1
69 21 1
69 22 2
69 23 1
69 24 2
69 25 2
69 26 2
69 27 1
69 28 2
69 29 2
69 30 2
69 31 2
69 32 2
69 33 2
69 34 1
69 35 1
69 36 2
69 37 1
69 38 2
69 39 1
69 40 1
69 41 1
69 42 1
69 43 2
69 44 2
69 45 2
69 46 2
69 47 1
69 48 1
69 49 1
69 50 1
69 51 1
69 52 2
69 53 1
69 54 1
69 55 2
69 56 1
69 57 2
69 58 2
69 59 2
69 60 1
69 61 1
69 62 2
69 63 2
69 64 2
69 65 1
69 66 2
69 67 2
69 68 1
